proyfinal/src/viki/013/andrea/andrea-localstore/experimentInOfficeAgust.take6/worker_4/53484457-2b76-4f30-b6f8-a520a07580de.als.cnf.out
Reading from standard input... Use '--help' for help.
============================[ Problem Statistics ]=============================
|                                                                             |
|  Number of variables:         87638                                         |
|  Number of clauses:          161767                                         |
|  Parse time:                   0.03 s                                       |
|                                                                             |
============================[ Search Statistics ]==============================
| Conflicts |          ORIGINAL         |          LEARNT          | Progress |
|           |    Vars  Clauses Literals |    Limit  Clauses Lit/Cl |          |
===============================================================================
|       100 |   63842   110886   275995 |    40658      100      8 | 27.153 % |
|       250 |   63842   110886   275995 |    44724      250     44 | 27.153 % |
|       475 |   63842   110886   275995 |    49196      475     82 | 27.153 % |
|       812 |   63841   110842   275905 |    54116      811     80 | 27.154 % |
|      1318 |   63841   110842   275905 |    59527     1317     71 | 27.154 % |
|      2077 |   63841   110842   275905 |    65480     2076     65 | 27.154 % |
|      3216 |   63823   110768   275734 |    72028     3214     66 | 27.174 % |
|      4924 |   63806   110700   275573 |    79231     4921     62 | 27.194 % |
|      7486 |   63806   110700   275573 |    87154     7483     66 | 27.194 % |
|     11330 |   63788   110626   275402 |    95869    11324     72 | 27.214 % |
|     17096 |   63788   110626   275402 |   105456    17090     73 | 27.214 % |
===============================================================================
restarts              : 69
conflicts             : 19975          (8046 /sec)
decisions             : 74500          (0.00 % random) (30008 /sec)
propagations          : 26950468       (10855428 /sec)
conflict literals     : 1413465        (50.44 % deleted)
Memory used           : 32.89 MB
CPU time              : 2.48267 s

UNSATISFIABLE
